benchmarks_CP/INST_64x64/50/inst64x64_50_76.dzn
S=8;
start=[|
-1,	18,	57,	31,	-1,	-1,	-1,	-1,	23,	56,	51,	29,	-1,	-1,	17,	48,	62,	-1,	64,	-1,	-1,	61,	5,	43,	45,	-1,	-1,	35,	14,	15,	58,	12,	50,	30,	-1,	-1,	-1,	-1,	32,	-1,	59,	27,	10,	-1,	22,	7,	16,	44,	55,	-1,	52,	24,	20,	33,	-1,	-1,	-1,	21,	6,	28,	41,	38,	-1,	47|
26,	8,	-1,	59,	20,	-1,	-1,	44,	55,	41,	62,	38,	-1,	-1,	-1,	37,	24,	-1,	63,	60,	-1,	-1,	-1,	-1,	47,	42,	61,	4,	-1,	51,	43,	-1,	49,	36,	58,	-1,	-1,	40,	39,	-1,	-1,	-1,	-1,	-1,	-1,	-1,	-1,	-1,	-1,	-1,	32,	53,	48,	-1,	-1,	16,	52,	-1,	2,	-1,	-1,	-1,	-1,	-1|
-1,	-1,	52,	-1,	-1,	5,	-1,	-1,	-1,	-1,	39,	-1,	-1,	-1,	18,	45,	-1,	-1,	58,	9,	-1,	47,	22,	-1,	13,	23,	-1,	-1,	27,	-1,	10,	33,	55,	61,	-1,	37,	-1,	-1,	-1,	-1,	26,	-1,	-1,	-1,	40,	-1,	53,	-1,	51,	63,	31,	-1,	-1,	-1,	56,	43,	-1,	-1,	-1,	-1,	-1,	-1,	4,	20|
-1,	23,	-1,	-1,	43,	14,	51,	41,	-1,	-1,	5,	50,	26,	22,	28,	4,	30,	21,	44,	25,	-1,	11,	3,	-1,	32,	-1,	16,	-1,	-1,	-1,	-1,	20,	-1,	-1,	-1,	64,	-1,	-1,	-1,	-1,	61,	24,	-1,	18,	39,	9,	-1,	46,	-1,	-1,	-1,	-1,	17,	7,	10,	-1,	40,	-1,	-1,	-1,	33,	-1,	-1,	29|
47,	-1,	40,	28,	-1,	-1,	17,	-1,	-1,	-1,	-1,	16,	3,	-1,	-1,	-1,	-1,	27,	38,	-1,	4,	-1,	-1,	-1,	50,	-1,	-1,	-1,	-1,	30,	-1,	53,	-1,	56,	-1,	51,	-1,	5,	-1,	-1,	6,	34,	-1,	-1,	1,	-1,	11,	37,	49,	-1,	14,	-1,	44,	-1,	-1,	-1,	59,	-1,	63,	-1,	61,	-1,	-1,	-1|
11,	-1,	-1,	48,	56,	-1,	37,	-1,	-1,	27,	44,	-1,	-1,	30,	53,	1,	33,	-1,	45,	-1,	-1,	20,	-1,	7,	-1,	-1,	-1,	-1,	-1,	-1,	-1,	-1,	-1,	-1,	-1,	62,	-1,	-1,	-1,	-1,	-1,	23,	55,	-1,	-1,	-1,	13,	47,	34,	-1,	-1,	-1,	-1,	18,	35,	3,	-1,	15,	-1,	-1,	46,	-1,	-1,	-1|
-1,	-1,	27,	-1,	-1,	7,	33,	-1,	25,	61,	46,	-1,	-1,	34,	10,	-1,	-1,	36,	55,	39,	-1,	56,	-1,	59,	-1,	-1,	-1,	-1,	6,	37,	19,	17,	-1,	41,	-1,	60,	47,	-1,	-1,	2,	-1,	5,	-1,	3,	35,	-1,	21,	-1,	40,	-1,	-1,	-1,	50,	15,	-1,	23,	-1,	54,	-1,	11,	-1,	45,	16,	-1|
-1,	-1,	58,	-1,	6,	53,	61,	4,	47,	57,	9,	-1,	-1,	52,	24,	40,	37,	26,	46,	34,	15,	-1,	-1,	17,	5,	-1,	28,	11,	63,	7,	-1,	29,	-1,	23,	-1,	10,	-1,	-1,	43,	-1,	19,	-1,	62,	-1,	51,	-1,	-1,	-1,	-1,	-1,	-1,	-1,	13,	-1,	-1,	45,	-1,	55,	39,	50,	-1,	-1,	-1,	-1|
63,	28,	-1,	11,	-1,	-1,	-1,	13,	64,	-1,	-1,	45,	7,	3,	62,	23,	57,	-1,	33,	4,	27,	-1,	34,	-1,	-1,	-1,	5,	58,	19,	36,	39,	-1,	-1,	-1,	-1,	46,	-1,	6,	-1,	-1,	10,	44,	-1,	-1,	-1,	32,	50,	-1,	-1,	-1,	-1,	20,	31,	12,	16,	-1,	-1,	59,	-1,	35,	-1,	54,	-1,	38|
2,	41,	-1,	21,	46,	15,	42,	-1,	43,	-1,	27,	49,	-1,	-1,	32,	-1,	52,	18,	-1,	54,	-1,	-1,	-1,	-1,	7,	-1,	-1,	1,	-1,	35,	-1,	-1,	-1,	63,	-1,	33,	-1,	-1,	-1,	4,	-1,	19,	39,	12,	-1,	-1,	24,	60,	23,	-1,	29,	-1,	38,	-1,	-1,	-1,	58,	-1,	14,	-1,	30,	-1,	61,	13|
19,	40,	48,	-1,	53,	44,	-1,	39,	12,	-1,	28,	-1,	46,	58,	41,	59,	13,	-1,	-1,	-1,	64,	-1,	-1,	42,	27,	2,	43,	-1,	54,	23,	-1,	6,	30,	34,	-1,	-1,	14,	-1,	47,	50,	36,	-1,	1,	-1,	25,	49,	33,	-1,	52,	10,	51,	-1,	35,	60,	32,	4,	-1,	11,	9,	20,	-1,	-1,	7,	62|
-1,	6,	-1,	-1,	-1,	-1,	8,	-1,	56,	39,	-1,	18,	-1,	61,	55,	-1,	-1,	11,	-1,	-1,	45,	49,	9,	1,	30,	14,	-1,	21,	50,	48,	31,	28,	52,	60,	-1,	-1,	-1,	-1,	-1,	37,	-1,	62,	-1,	-1,	64,	38,	51,	59,	-1,	-1,	42,	58,	63,	3,	47,	19,	22,	-1,	12,	10,	40,	16,	32,	46|
43,	27,	29,	-1,	-1,	-1,	-1,	56,	8,	-1,	-1,	48,	38,	14,	19,	-1,	46,	-1,	40,	31,	-1,	2,	32,	36,	20,	-1,	60,	-1,	15,	10,	9,	-1,	16,	-1,	12,	-1,	53,	-1,	-1,	-1,	57,	-1,	-1,	-1,	41,	-1,	63,	30,	5,	33,	45,	44,	21,	-1,	62,	-1,	37,	28,	-1,	-1,	-1,	50,	64,	-1|
57,	61,	22,	33,	-1,	59,	36,	52,	-1,	53,	20,	-1,	9,	47,	-1,	60,	-1,	48,	25,	-1,	-1,	21,	-1,	58,	29,	4,	26,	56,	-1,	-1,	64,	-1,	54,	-1,	-1,	-1,	-1,	-1,	24,	-1,	-1,	3,	-1,	-1,	27,	40,	-1,	-1,	-1,	-1,	-1,	-1,	11,	-1,	1,	30,	-1,	-1,	45,	51,	-1,	-1,	-1,	-1|
-1,	-1,	25,	64,	32,	47,	-1,	34,	-1,	50,	-1,	31,	6,	-1,	11,	17,	20,	-1,	30,	26,	5,	-1,	-1,	-1,	37,	38,	62,	22,	41,	16,	-1,	-1,	-1,	-1,	8,	19,	-1,	48,	7,	36,	23,	43,	-1,	-1,	58,	-1,	45,	-1,	54,	9,	18,	61,	-1,	57,	53,	-1,	-1,	-1,	27,	-1,	49,	33,	29,	3|
-1,	-1,	62,	-1,	-1,	3,	-1,	31,	52,	1,	-1,	36,	35,	-1,	16,	-1,	44,	19,	51,	-1,	47,	-1,	37,	-1,	12,	33,	63,	46,	57,	-1,	45,	42,	61,	43,	-1,	-1,	32,	58,	-1,	-1,	14,	-1,	-1,	-1,	53,	-1,	22,	-1,	8,	-1,	64,	55,	-1,	41,	40,	-1,	24,	-1,	-1,	-1,	-1,	-1,	-1,	15|
-1,	-1,	41,	43,	39,	-1,	-1,	27,	31,	-1,	36,	57,	-1,	-1,	-1,	47,	-1,	-1,	-1,	32,	-1,	1,	35,	-1,	61,	-1,	-1,	42,	51,	28,	-1,	-1,	-1,	6,	-1,	-1,	20,	4,	-1,	55,	-1,	11,	-1,	15,	-1,	23,	-1,	-1,	18,	-1,	44,	29,	33,	21,	-1,	-1,	-1,	-1,	54,	-1,	-1,	10,	48,	63|
-1,	-1,	36,	6,	26,	-1,	-1,	30,	-1,	46,	-1,	9,	-1,	-1,	-1,	-1,	-1,	47,	-1,	-1,	40,	-1,	-1,	-1,	54,	64,	-1,	-1,	-1,	17,	12,	-1,	38,	39,	7,	15,	49,	-1,	-1,	8,	-1,	-1,	3,	-1,	-1,	-1,	-1,	-1,	22,	-1,	-1,	-1,	62,	-1,	-1,	-1,	33,	-1,	-1,	-1,	32,	-1,	52,	-1|
-1,	-1,	10,	-1,	-1,	-1,	49,	-1,	-1,	52,	-1,	56,	58,	-1,	-1,	61,	5,	15,	27,	20,	55,	-1,	-1,	-1,	39,	19,	-1,	-1,	-1,	21,	34,	59,	13,	11,	25,	45,	36,	-1,	-1,	1,	-1,	-1,	43,	22,	-1,	16,	48,	17,	26,	-1,	7,	-1,	-1,	54,	-1,	-1,	-1,	-1,	-1,	14,	2,	-1,	57,	50|
50,	31,	45,	61,	25,	-1,	15,	-1,	27,	4,	54,	1,	-1,	33,	3,	-1,	14,	13,	-1,	-1,	-1,	-1,	-1,	24,	-1,	-1,	58,	29,	8,	63,	-1,	38,	-1,	51,	-1,	41,	-1,	9,	64,	-1,	-1,	-1,	-1,	44,	-1,	-1,	19,	35,	-1,	52,	48,	-1,	-1,	-1,	20,	-1,	-1,	42,	-1,	49,	-1,	39,	53,	16|
18,	-1,	19,	-1,	3,	2,	-1,	-1,	-1,	44,	11,	-1,	30,	10,	-1,	42,	-1,	-1,	-1,	28,	-1,	-1,	54,	-1,	-1,	27,	52,	60,	-1,	-1,	-1,	-1,	-1,	-1,	-1,	22,	48,	33,	-1,	-1,	-1,	63,	31,	49,	-1,	8,	61,	58,	-1,	51,	12,	13,	39,	-1,	-1,	9,	-1,	-1,	40,	-1,	-1,	47,	62,	-1|
-1,	52,	7,	5,	-1,	-1,	14,	-1,	63,	-1,	6,	-1,	-1,	-1,	-1,	-1,	-1,	34,	37,	12,	-1,	3,	-1,	-1,	-1,	-1,	-1,	-1,	1,	57,	-1,	16,	56,	-1,	43,	-1,	62,	42,	53,	46,	9,	29,	20,	-1,	38,	26,	59,	4,	-1,	-1,	61,	-1,	49,	45,	-1,	64,	-1,	31,	-1,	-1,	24,	-1,	41,	-1|
-1,	-1,	11,	17,	62,	48,	57,	-1,	-1,	-1,	2,	43,	24,	-1,	50,	26,	8,	-1,	-1,	-1,	22,	63,	-1,	-1,	10,	-1,	9,	-1,	46,	-1,	-1,	-1,	-1,	-1,	-1,	35,	-1,	-1,	-1,	-1,	51,	-1,	52,	-1,	-1,	39,	28,	-1,	-1,	40,	3,	14,	-1,	-1,	-1,	38,	12,	-1,	55,	23,	21,	59,	-1,	25|
64,	63,	-1,	42,	4,	-1,	58,	59,	62,	-1,	-1,	34,	5,	38,	40,	20,	-1,	52,	2,	10,	53,	-1,	39,	18,	33,	-1,	-1,	36,	37,	41,	-1,	44,	23,	-1,	-1,	-1,	-1,	26,	28,	-1,	-1,	-1,	6,	-1,	-1,	25,	-1,	-1,	31,	43,	-1,	32,	47,	56,	60,	15,	-1,	-1,	17,	13,	-1,	61,	-1,	45|
-1,	7,	-1,	-1,	-1,	27,	11,	-1,	-1,	33,	8,	-1,	40,	-1,	-1,	22,	58,	62,	34,	-1,	56,	-1,	63,	5,	59,	-1,	55,	43,	42,	-1,	6,	-1,	12,	-1,	53,	25,	-1,	45,	-1,	-1,	50,	-1,	-1,	23,	-1,	10,	1,	-1,	21,	-1,	-1,	52,	14,	-1,	-1,	31,	46,	38,	29,	15,	-1,	3,	26,	-1|
-1,	14,	-1,	-1,	-1,	32,	-1,	-1,	39,	-1,	61,	-1,	-1,	-1,	2,	10,	-1,	1,	4,	49,	41,	50,	-1,	-1,	-1,	-1,	-1,	-1,	60,	38,	-1,	-1,	-1,	8,	55,	-1,	5,	19,	-1,	-1,	46,	-1,	63,	-1,	-1,	31,	43,	40,	62,	12,	-1,	22,	-1,	47,	42,	-1,	-1,	45,	-1,	-1,	-1,	-1,	11,	-1|
4,	-1,	33,	-1,	-1,	-1,	9,	-1,	-1,	-1,	-1,	-1,	57,	53,	-1,	38,	26,	29,	52,	-1,	35,	44,	-1,	37,	56,	-1,	-1,	-1,	-1,	-1,	16,	-1,	-1,	42,	59,	18,	-1,	28,	-1,	-1,	30,	41,	-1,	-1,	3,	-1,	54,	-1,	-1,	-1,	34,	-1,	-1,	8,	-1,	-1,	61,	-1,	50,	27,	48,	63,	25,	-1|
-1,	64,	-1,	18,	31,	-1,	6,	25,	50,	-1,	-1,	-1,	-1,	11,	-1,	-1,	48,	-1,	-1,	-1,	-1,	-1,	42,	53,	34,	-1,	-1,	-1,	3,	-1,	-1,	45,	35,	-1,	40,	-1,	-1,	-1,	-1,	24,	58,	49,	-1,	-1,	-1,	-1,	-1,	-1,	33,	55,	28,	1,	-1,	-1,	15,	60,	2,	62,	36,	8,	-1,	12,	10,	-1|
44,	-1,	42,	-1,	-1,	-1,	22,	-1,	-1,	-1,	-1,	-1,	4,	-1,	-1,	64,	-1,	-1,	-1,	-1,	12,	-1,	-1,	39,	46,	-1,	21,	-1,	52,	29,	-1,	9,	-1,	-1,	-1,	17,	31,	-1,	-1,	48,	38,	-1,	60,	32,	-1,	2,	8,	-1,	16,	61,	50,	-1,	-1,	-1,	-1,	5,	-1,	37,	35,	57,	-1,	-1,	56,	-1|
-1,	46,	61,	41,	-1,	-1,	10,	-1,	-1,	-1,	-1,	-1,	12,	-1,	49,	-1,	-1,	51,	20,	-1,	2,	-1,	-1,	-1,	22,	-1,	15,	25,	58,	4,	-1,	-1,	43,	-1,	33,	-1,	-1,	50,	36,	6,	48,	42,	-1,	-1,	45,	5,	-1,	-1,	-1,	29,	37,	-1,	-1,	13,	-1,	-1,	23,	-1,	-1,	40,	28,	64,	17,	-1|
-1,	26,	50,	34,	-1,	-1,	-1,	-1,	-1,	13,	-1,	-1,	-1,	-1,	-1,	14,	-1,	-1,	17,	61,	9,	36,	59,	-1,	63,	48,	39,	53,	49,	-1,	-1,	30,	51,	-1,	-1,	29,	56,	-1,	23,	38,	27,	-1,	-1,	-1,	12,	-1,	-1,	-1,	4,	-1,	-1,	-1,	-1,	-1,	-1,	-1,	5,	-1,	-1,	54,	-1,	52,	-1,	-1|
-1,	-1,	12,	-1,	-1,	-1,	-1,	-1,	35,	-1,	-1,	17,	27,	31,	-1,	-1,	-1,	-1,	-1,	-1,	23,	64,	13,	-1,	1,	-1,	10,	-1,	20,	-1,	5,	32,	58,	-1,	49,	7,	-1,	-1,	21,	-1,	28,	39,	14,	62,	-1,	61,	-1,	-1,	6,	-1,	54,	-1,	-1,	-1,	9,	57,	-1,	-1,	22,	42,	59,	4,	-1,	-1|
-1,	21,	6,	3,	-1,	-1,	-1,	1,	-1,	-1,	31,	4,	-1,	28,	-1,	-1,	17,	16,	-1,	23,	25,	52,	20,	-1,	-1,	59,	-1,	40,	39,	-1,	48,	41,	-1,	-1,	37,	-1,	61,	-1,	-1,	51,	-1,	-1,	-1,	-1,	29,	-1,	10,	-1,	-1,	45,	-1,	-1,	46,	64,	-1,	-1,	11,	-1,	-1,	-1,	-1,	-1,	54,	-1|
48,	34,	20,	-1,	-1,	-1,	27,	-1,	16,	-1,	13,	6,	32,	-1,	26,	25,	40,	24,	14,	-1,	-1,	-1,	33,	11,	42,	-1,	19,	37,	4,	-1,	-1,	-1,	-1,	45,	-1,	-1,	-1,	-1,	-1,	63,	12,	-1,	-1,	8,	-1,	59,	-1,	-1,	-1,	15,	-1,	-1,	-1,	-1,	-1,	17,	-1,	3,	52,	-1,	-1,	41,	38,	58|
39,	-1,	-1,	38,	33,	30,	29,	-1,	-1,	-1,	47,	-1,	-1,	-1,	56,	-1,	42,	6,	-1,	-1,	-1,	46,	-1,	4,	-1,	-1,	-1,	15,	16,	-1,	23,	62,	-1,	50,	-1,	3,	2,	1,	8,	-1,	40,	45,	54,	26,	17,	19,	-1,	-1,	60,	34,	5,	10,	37,	-1,	14,	-1,	31,	-1,	24,	9,	43,	27,	-1,	-1|
-1,	22,	51,	-1,	12,	-1,	31,	19,	30,	-1,	57,	-1,	37,	45,	14,	-1,	-1,	5,	48,	7,	44,	26,	-1,	8,	-1,	50,	-1,	61,	21,	47,	-1,	27,	-1,	10,	-1,	-1,	23,	-1,	-1,	15,	-1,	-1,	38,	-1,	16,	-1,	-1,	3,	56,	32,	55,	-1,	54,	-1,	13,	-1,	62,	-1,	34,	-1,	-1,	42,	-1,	-1|
40,	35,	-1,	-1,	11,	-1,	26,	-1,	-1,	55,	-1,	23,	62,	-1,	-1,	-1,	-1,	-1,	31,	-1,	-1,	-1,	-1,	27,	-1,	-1,	46,	-1,	7,	-1,	-1,	5,	-1,	16,	-1,	47,	-1,	54,	25,	-1,	-1,	1,	21,	14,	57,	37,	52,	-1,	50,	3,	20,	-1,	-1,	-1,	-1,	44,	-1,	-1,	-1,	-1,	64,	-1,	-1,	36|
42,	-1,	-1,	45,	-1,	37,	54,	63,	-1,	-1,	19,	-1,	-1,	12,	-1,	27,	39,	-1,	15,	-1,	-1,	-1,	49,	50,	-1,	-1,	-1,	55,	22,	44,	-1,	-1,	34,	40,	-1,	14,	33,	-1,	-1,	52,	-1,	-1,	30,	28,	-1,	13,	-1,	25,	43,	-1,	-1,	51,	-1,	-1,	7,	-1,	-1,	6,	-1,	48,	-1,	-1,	-1,	-1|
-1,	50,	53,	-1,	23,	46,	56,	14,	41,	-1,	15,	-1,	-1,	36,	1,	5,	2,	32,	-1,	-1,	38,	-1,	61,	22,	-1,	-1,	-1,	63,	17,	-1,	33,	13,	44,	12,	-1,	31,	42,	-1,	-1,	-1,	49,	-1,	-1,	-1,	-1,	-1,	4,	-1,	-1,	-1,	-1,	-1,	-1,	52,	26,	62,	-1,	29,	19,	45,	20,	-1,	37,	-1|
-1,	2,	43,	-1,	-1,	-1,	-1,	5,	3,	-1,	-1,	-1,	63,	64,	-1,	9,	10,	-1,	-1,	-1,	-1,	-1,	36,	19,	-1,	-1,	56,	57,	29,	-1,	-1,	26,	-1,	-1,	-1,	32,	-1,	30,	-1,	35,	47,	6,	11,	-1,	-1,	-1,	44,	-1,	42,	8,	-1,	-1,	27,	-1,	-1,	-1,	-1,	-1,	-1,	33,	-1,	53,	51,	12|
56,	-1,	14,	-1,	-1,	33,	-1,	35,	15,	-1,	-1,	2,	49,	27,	-1,	-1,	-1,	46,	-1,	-1,	58,	8,	26,	9,	3,	54,	12,	16,	10,	20,	-1,	1,	-1,	64,	-1,	-1,	-1,	39,	-1,	62,	-1,	21,	-1,	-1,	-1,	48,	-1,	50,	-1,	-1,	-1,	-1,	6,	61,	31,	-1,	17,	63,	-1,	43,	-1,	-1,	40,	-1|
-1,	48,	44,	62,	16,	11,	-1,	8,	-1,	-1,	40,	35,	20,	-1,	-1,	-1,	32,	42,	1,	59,	7,	18,	-1,	2,	60,	-1,	47,	28,	-1,	27,	-1,	-1,	17,	-1,	-1,	-1,	-1,	51,	14,	49,	53,	4,	-1,	9,	-1,	30,	-1,	-1,	-1,	-1,	-1,	39,	36,	-1,	-1,	63,	-1,	-1,	10,	-1,	-1,	-1,	-1,	-1|
6,	-1,	-1,	22,	-1,	-1,	-1,	45,	-1,	31,	-1,	21,	-1,	59,	-1,	-1,	-1,	37,	29,	-1,	-1,	15,	-1,	34,	-1,	-1,	2,	51,	-1,	-1,	17,	-1,	9,	20,	-1,	-1,	-1,	44,	58,	23,	7,	52,	-1,	-1,	47,	55,	-1,	-1,	32,	-1,	-1,	49,	-1,	-1,	-1,	-1,	-1,	-1,	-1,	24,	54,	56,	-1,	27|
-1,	42,	-1,	12,	-1,	31,	-1,	-1,	32,	51,	-1,	-1,	-1,	37,	-1,	-1,	-1,	-1,	49,	-1,	6,	-1,	30,	41,	4,	9,	-1,	64,	36,	61,	59,	24,	10,	33,	-1,	-1,	-1,	-1,	18,	-1,	-1,	-1,	22,	-1,	-1,	46,	23,	-1,	20,	-1,	-1,	-1,	19,	53,	38,	56,	-1,	48,	-1,	62,	50,	-1,	-1,	-1|
-1,	-1,	18,	-1,	59,	-1,	-1,	53,	46,	-1,	17,	61,	48,	60,	39,	-1,	23,	-1,	-1,	-1,	-1,	-1,	-1,	13,	6,	26,	-1,	52,	43,	-1,	-1,	50,	27,	-1,	-1,	57,	-1,	3,	-1,	-1,	-1,	51,	40,	10,	-1,	-1,	58,	-1,	47,	30,	-1,	-1,	9,	-1,	55,	8,	-1,	-1,	-1,	38,	-1,	-1,	-1,	28|
32,	24,	-1,	46,	41,	-1,	-1,	36,	45,	-1,	-1,	10,	8,	9,	58,	-1,	-1,	20,	28,	-1,	11,	55,	27,	57,	49,	5,	-1,	-1,	-1,	39,	-1,	-1,	31,	53,	-1,	-1,	-1,	47,	-1,	40,	33,	-1,	61,	-1,	44,	-1,	-1,	54,	13,	-1,	-1,	60,	43,	-1,	29,	-1,	14,	19,	18,	-1,	-1,	-1,	-1,	-1|
58,	37,	-1,	19,	47,	54,	5,	50,	1,	14,	55,	-1,	43,	-1,	30,	18,	61,	12,	35,	44,	24,	-1,	38,	-1,	21,	7,	8,	-1,	-1,	-1,	32,	23,	4,	15,	34,	-1,	-1,	36,	-1,	-1,	17,	31,	56,	-1,	62,	57,	-1,	20,	48,	64,	-1,	-1,	28,	10,	51,	-1,	49,	53,	-1,	2,	-1,	-1,	33,	9|
30,	-1,	-1,	-1,	-1,	1,	-1,	55,	-1,	-1,	-1,	-1,	47,	13,	-1,	-1,	-1,	-1,	-1,	50,	-1,	51,	-1,	52,	40,	57,	33,	18,	34,	58,	-1,	-1,	6,	29,	28,	-1,	-1,	46,	54,	-1,	24,	59,	49,	-1,	-1,	42,	-1,	-1,	-1,	-1,	2,	-1,	-1,	-1,	-1,	-1,	60,	-1,	-1,	26,	-1,	36,	-1,	-1|
13,	36,	-1,	-1,	34,	-1,	-1,	11,	-1,	25,	-1,	37,	41,	-1,	-1,	16,	-1,	-1,	-1,	27,	-1,	-1,	-1,	-1,	35,	-1,	14,	-1,	44,	-1,	60,	-1,	-1,	49,	-1,	-1,	58,	-1,	19,	43,	-1,	61,	-1,	39,	-1,	4,	-1,	-1,	45,	-1,	-1,	-1,	18,	-1,	-1,	-1,	50,	-1,	-1,	-1,	-1,	-1,	-1,	59|
-1,	-1,	64,	39,	27,	35,	41,	24,	-1,	-1,	-1,	19,	-1,	-1,	-1,	15,	-1,	-1,	57,	51,	-1,	-1,	-1,	29,	-1,	-1,	-1,	-1,	-1,	42,	1,	43,	-1,	55,	16,	34,	18,	56,	-1,	31,	21,	9,	59,	37,	48,	-1,	-1,	-1,	-1,	-1,	13,	4,	-1,	-1,	2,	40,	-1,	-1,	-1,	-1,	45,	49,	-1,	8|
25,	-1,	-1,	30,	49,	23,	-1,	-1,	5,	6,	-1,	59,	-1,	18,	38,	-1,	1,	-1,	-1,	-1,	8,	-1,	2,	32,	26,	-1,	4,	-1,	48,	-1,	-1,	-1,	-1,	17,	-1,	-1,	35,	7,	-1,	10,	-1,	36,	-1,	51,	31,	53,	40,	28,	-1,	-1,	19,	33,	29,	-1,	-1,	55,	63,	-1,	43,	12,	-1,	-1,	46,	52|
22,	-1,	47,	14,	57,	-1,	-1,	6,	-1,	49,	24,	27,	-1,	-1,	-1,	2,	-1,	-1,	-1,	-1,	3,	-1,	7,	10,	-1,	34,	38,	19,	18,	-1,	-1,	36,	-1,	25,	45,	8,	-1,	21,	-1,	-1,	13,	55,	5,	1,	15,	-1,	-1,	33,	37,	20,	-1,	-1,	-1,	58,	-1,	-1,	-1,	60,	-1,	29,	-1,	62,	35,	-1|
-1,	16,	-1,	-1,	63,	29,	53,	20,	54,	-1,	-1,	55,	-1,	23,	43,	-1,	-1,	45,	-1,	40,	39,	59,	48,	-1,	-1,	-1,	57,	47,	-1,	52,	50,	2,	3,	4,	41,	1,	-1,	-1,	13,	-1,	34,	17,	27,	25,	-1,	-1,	-1,	-1,	-1,	-1,	-1,	-1,	60,	36,	-1,	49,	-1,	-1,	-1,	-1,	-1,	-1,	42,	44|
37,	10,	-1,	56,	18,	-1,	40,	46,	9,	63,	-1,	-1,	-1,	-1,	31,	29,	34,	-1,	-1,	19,	16,	-1,	-1,	-1,	-1,	-1,	20,	-1,	45,	-1,	25,	49,	15,	24,	-1,	2,	28,	-1,	-1,	12,	-1,	-1,	-1,	43,	42,	54,	35,	23,	44,	-1,	47,	-1,	-1,	32,	39,	-1,	30,	13,	33,	-1,	3,	-1,	-1,	55|
-1,	17,	-1,	2,	19,	-1,	7,	-1,	-1,	-1,	-1,	-1,	-1,	-1,	-1,	33,	63,	25,	-1,	-1,	-1,	-1,	-1,	31,	-1,	-1,	-1,	-1,	5,	-1,	22,	-1,	-1,	48,	-1,	-1,	59,	38,	60,	-1,	-1,	-1,	12,	47,	-1,	-1,	14,	-1,	15,	-1,	-1,	35,	-1,	-1,	-1,	-1,	-1,	27,	-1,	4,	-1,	-1,	-1,	-1|
21,	-1,	8,	58,	55,	45,	-1,	43,	34,	17,	32,	62,	-1,	-1,	20,	-1,	-1,	53,	42,	-1,	37,	-1,	44,	-1,	15,	-1,	40,	27,	-1,	31,	-1,	-1,	46,	-1,	47,	-1,	-1,	64,	-1,	33,	-1,	-1,	-1,	56,	-1,	-1,	60,	-1,	-1,	-1,	38,	12,	59,	14,	23,	-1,	-1,	-1,	48,	19,	-1,	-1,	-1,	24|
-1,	-1,	-1,	1,	-1,	64,	16,	-1,	19,	-1,	-1,	3,	-1,	44,	-1,	-1,	-1,	-1,	-1,	-1,	30,	-1,	-1,	51,	28,	-1,	17,	20,	-1,	-1,	-1,	4,	24,	-1,	-1,	-1,	-1,	53,	45,	32,	42,	-1,	-1,	-1,	-1,	60,	-1,	9,	-1,	-1,	-1,	15,	25,	23,	57,	-1,	-1,	-1,	-1,	-1,	8,	-1,	50,	33|
7,	-1,	35,	-1,	-1,	-1,	-1,	21,	-1,	-1,	59,	-1,	29,	55,	27,	-1,	12,	2,	26,	-1,	60,	-1,	-1,	-1,	25,	15,	1,	-1,	47,	5,	-1,	3,	18,	-1,	-1,	30,	-1,	10,	33,	-1,	-1,	16,	17,	-1,	-1,	51,	-1,	8,	64,	49,	-1,	19,	-1,	-1,	52,	-1,	-1,	46,	58,	39,	-1,	-1,	63,	-1|
33,	-1,	-1,	55,	-1,	10,	-1,	-1,	38,	43,	-1,	5,	45,	-1,	-1,	62,	47,	4,	-1,	48,	-1,	58,	-1,	63,	-1,	16,	37,	7,	23,	-1,	27,	-1,	-1,	-1,	19,	-1,	-1,	61,	-1,	9,	-1,	32,	2,	30,	-1,	-1,	49,	52,	-1,	13,	46,	3,	41,	42,	-1,	35,	34,	-1,	57,	-1,	53,	24,	-1,	-1|
-1,	58,	-1,	-1,	42,	57,	18,	-1,	40,	36,	-1,	-1,	39,	16,	-1,	-1,	25,	-1,	19,	-1,	10,	-1,	1,	20,	55,	-1,	41,	-1,	-1,	50,	46,	-1,	22,	2,	-1,	-1,	-1,	-1,	37,	-1,	63,	48,	-1,	-1,	43,	-1,	-1,	5,	28,	53,	-1,	38,	-1,	9,	-1,	-1,	-1,	-1,	-1,	-1,	35,	-1,	-1,	64|
5,	19,	34,	-1,	-1,	-1,	23,	-1,	26,	-1,	-1,	-1,	42,	-1,	15,	28,	50,	-1,	11,	-1,	18,	16,	-1,	-1,	-1,	-1,	-1,	-1,	-1,	43,	-1,	58,	21,	62,	31,	40,	-1,	12,	-1,	47,	-1,	33,	53,	-1,	37,	-1,	46,	13,	-1,	39,	60,	63,	-1,	-1,	-1,	1,	29,	-1,	-1,	3,	-1,	-1,	-1,	6|
-1,	15,	-1,	-1,	-1,	-1,	-1,	-1,	49,	9,	21,	-1,	-1,	-1,	-1,	-1,	-1,	-1,	-1,	35,	57,	7,	-1,	61,	48,	-1,	-1,	10,	64,	-1,	-1,	60,	29,	-1,	5,	54,	-1,	-1,	16,	28,	-1,	-1,	4,	-1,	-1,	62,	27,	45,	-1,	-1,	33,	50,	24,	-1,	-1,	-1,	-1,	26,	1,	25,	-1,	-1,	-1,	2|
38,	-1,	-1,	-1,	37,	-1,	43,	-1,	57,	-1,	60,	-1,	56,	1,	-1,	63,	54,	59,	-1,	29,	42,	-1,	28,	3,	11,	36,	49,	-1,	24,	33,	-1,	-1,	-1,	-1,	23,	-1,	17,	14,	-1,	41,	-1,	-1,	19,	64,	-1,	50,	55,	21,	-1,	44,	-1,	-1,	-1,	16,	6,	48,	15,	-1,	-1,	31,	62,	40,	-1,	-1|
3,	60,	63,	-1,	-1,	8,	-1,	-1,	4,	18,	64,	-1,	33,	-1,	54,	-1,	9,	-1,	-1,	52,	-1,	-1,	46,	-1,	19,	53,	-1,	-1,	59,	-1,	29,	-1,	25,	-1,	-1,	55,	-1,	43,	38,	56,	-1,	28,	23,	-1,	-1,	35,	57,	1,	-1,	-1,	26,	-1,	-1,	27,	-1,	20,	-1,	49,	-1,	-1,	-1,	21,	44,	-1|];
