sudoku-ls/benchmarks_LEQ/INST_64x64/50/inst64x64_50_76.txt
8
1
-1	-1	57	-1	-1	39	-1	3	-1	56	51	29	19	-1	-1	-1	-1	40	64	1	-1	61	-1	-1	45	25	-1	35	14	-1	-1	12	50	-1	26	11	54	13	32	-1	59	27	-1	4	-1	7	-1	-1	55	60	-1	24	20	-1	37	42	-1	-1	-1	28	-1	38	-1	-1
-1	-1	-1	-1	20	25	-1	-1	-1	41	-1	-1	14	54	-1	37	-1	-1	-1	-1	13	6	-1	-1	-1	-1	61	4	-1	51	-1	21	49	36	58	12	46	40	39	-1	-1	-1	-1	-1	28	-1	-1	31	-1	5	32	53	48	-1	27	16	52	17	2	22	-1	7	3	-1
-1	-1	-1	-1	50	5	-1	16	11	-1	-1	7	15	-1	-1	-1	-1	28	58	9	29	47	22	48	-1	23	64	38	-1	46	-1	33	55	61	24	37	3	34	-1	-1	-1	-1	-1	2	40	-1	-1	32	51	63	-1	-1	12	-1	-1	-1	-1	-1	-1	44	57	19	-1	20
-1	23	-1	-1	-1	14	-1	-1	42	-1	5	-1	26	-1	-1	4	30	-1	-1	25	-1	11	-1	-1	-1	60	-1	-1	-1	-1	57	-1	-1	31	-1	64	-1	8	35	-1	61	24	-1	-1	-1	-1	-1	-1	-1	-1	58	-1	-1	7	-1	-1	40	12	49	-1	-1	37	13	-1
47	-1	-1	28	22	-1	17	-1	-1	58	-1	-1	-1	43	21	-1	-1	27	38	-1	-1	-1	57	12	50	-1	-1	39	-1	-1	-1	-1	-1	-1	-1	-1	7	-1	9	20	6	34	42	54	-1	-1	11	37	49	19	-1	-1	44	26	41	-1	59	-1	-1	-1	61	-1	60	32
-1	-1	-1	48	-1	9	37	29	6	27	-1	12	31	30	-1	-1	33	50	-1	16	32	-1	14	7	-1	41	-1	26	-1	24	2	54	42	-1	-1	-1	22	17	-1	-1	-1	-1	-1	60	49	58	13	47	-1	-1	-1	64	-1	18	35	3	51	-1	25	36	46	5	-1	10
49	-1	-1	24	64	7	33	-1	-1	-1	46	20	13	-1	-1	-1	-1	-1	-1	-1	-1	-1	51	59	44	18	-1	-1	6	37	-1	-1	-1	-1	-1	-1	47	-1	4	-1	-1	5	8	-1	-1	12	-1	-1	-1	-1	9	-1	-1	15	-1	-1	-1	54	-1	11	58	-1	-1	48
12	-1	58	-1	6	53	61	4	-1	57	-1	-1	-1	-1	-1	40	-1	26	-1	34	15	-1	-1	17	-1	3	28	11	-1	7	-1	-1	-1	23	-1	-1	1	-1	-1	16	19	-1	-1	-1	51	64	56	-1	-1	-1	-1	-1	13	-1	54	45	-1	55	-1	50	27	-1	-1	-1
63	-1	55	-1	-1	18	1	13	-1	42	29	45	7	3	62	23	-1	60	-1	-1	27	-1	-1	-1	51	49	5	-1	-1	36	-1	-1	40	21	9	-1	-1	6	-1	-1	10	-1	-1	61	-1	32	-1	48	-1	-1	-1	-1	31	12	-1	14	-1	59	53	-1	25	-1	47	-1
2	-1	-1	21	46	-1	42	51	-1	-1	-1	49	10	40	-1	-1	-1	18	-1	54	59	-1	62	6	-1	47	-1	-1	-1	-1	-1	8	45	-1	17	33	64	55	31	4	20	-1	39	12	-1	-1	-1	60	23	-1	29	-1	38	-1	25	-1	-1	-1	-1	5	30	-1	61	-1
19	-1	-1	16	53	44	-1	-1	-1	5	28	15	46	-1	41	59	13	-1	8	-1	-1	-1	24	42	-1	-1	-1	17	-1	-1	61	-1	30	34	22	-1	-1	-1	47	50	-1	-1	1	-1	25	-1	33	-1	-1	-1	-1	37	-1	-1	-1	-1	21	-1	9	-1	-1	31	7	-1
-1	6	5	-1	-1	-1	-1	-1	56	-1	33	-1	-1	-1	55	-1	43	-1	-1	53	45	-1	9	1	30	14	-1	21	50	-1	-1	-1	52	-1	-1	-1	-1	20	15	-1	4	62	-1	-1	64	-1	51	59	36	27	-1	58	63	3	-1	19	22	-1	12	-1	-1	16	-1	46
-1	27	29	54	-1	-1	4	-1	8	-1	22	-1	-1	-1	-1	-1	-1	-1	40	-1	-1	2	32	36	-1	55	60	-1	15	-1	-1	-1	16	1	-1	59	-1	-1	-1	11	57	35	-1	17	41	47	-1	-1	5	-1	45	-1	-1	6	62	39	37	28	42	52	-1	-1	-1	26
-1	61	22	33	-1	-1	36	-1	37	-1	20	-1	9	47	-1	-1	15	-1	-1	14	50	-1	-1	58	-1	-1	-1	-1	-1	-1	-1	-1	-1	-1	62	-1	-1	-1	24	-1	-1	-1	7	31	27	40	6	16	-1	-1	-1	17	-1	49	-1	30	-1	39	-1	51	-1	-1	-1	-1
-1	12	-1	-1	32	47	60	34	21	50	63	-1	-1	24	-1	17	-1	-1	30	26	-1	-1	10	-1	-1	-1	62	22	-1	16	44	-1	-1	13	8	-1	-1	48	-1	36	23	43	-1	46	-1	52	-1	42	54	-1	-1	61	-1	-1	-1	59	56	4	-1	-1	49	-1	-1	-1
-1	49	62	-1	9	-1	-1	-1	52	-1	-1	36	-1	-1	-1	-1	-1	-1	-1	38	-1	-1	37	-1	12	-1	-1	46	-1	59	-1	42	-1	-1	-1	-1	32	58	56	39	14	54	29	5	53	-1	-1	-1	-1	7	64	55	26	-1	40	-1	24	-1	60	6	17	-1	34	15
-1	-1	41	-1	-1	-1	12	27	31	-1	-1	-1	-1	-1	7	47	-1	-1	9	32	-1	1	35	49	61	40	45	-1	-1	-1	-1	-1	-1	6	-1	-1	-1	4	-1	55	37	11	46	-1	-1	23	5	-1	-1	25	-1	29	33	21	-1	-1	3	56	54	58	38	10	48	-1
29	-1	-1	6	-1	-1	55	30	-1	46	-1	9	16	-1	-1	41	-1	47	61	-1	40	19	-1	-1	54	64	-1	-1	53	-1	12	48	38	-1	7	15	-1	31	-1	-1	18	-1	3	-1	50	45	-1	2	22	-1	57	28	-1	63	24	27	33	-1	11	-1	-1	43	52	37
53	-1	-1	47	-1	-1	-1	-1	-1	52	18	56	58	-1	37	61	-1	15	27	20	-1	38	31	-1	-1	19	23	-1	62	-1	-1	-1	-1	11	25	-1	-1	63	-1	1	-1	40	43	22	-1	16	48	17	-1	-1	7	30	42	-1	4	46	44	-1	64	14	2	28	57	50
50	31	45	61	25	28	15	23	-1	4	54	1	60	33	3	-1	14	-1	7	-1	46	57	17	-1	18	43	58	29	8	-1	11	-1	5	51	10	41	-1	9	-1	-1	62	47	-1	44	21	-1	-1	-1	59	52	-1	2	34	55	20	37	-1	42	26	49	22	39	53	16
-1	-1	-1	-1	3	-1	-1	38	53	-1	-1	-1	30	-1	-1	42	6	-1	-1	-1	-1	25	-1	-1	24	-1	52	-1	35	-1	56	15	32	-1	14	22	-1	33	-1	-1	1	-1	-1	49	34	-1	61	58	-1	51	-1	13	39	-1	5	-1	-1	-1	-1	46	-1	47	62	4
-1	52	7	5	-1	-1	14	-1	-1	28	-1	-1	-1	48	-1	55	11	-1	-1	12	-1	-1	-1	44	2	13	32	30	-1	57	-1	-1	-1	-1	-1	58	-1	-1	-1	46	-1	29	-1	-1	-1	-1	59	-1	10	-1	-1	23	49	-1	36	-1	-1	-1	15	18	-1	-1	-1	19
54	44	-1	-1	-1	-1	57	33	13	-1	-1	-1	24	-1	-1	-1	8	41	-1	42	22	63	64	-1	-1	-1	-1	-1	46	-1	-1	31	47	18	-1	35	-1	-1	29	61	-1	-1	-1	27	-1	-1	-1	53	1	40	3	-1	16	-1	58	-1	-1	-1	-1	23	-1	59	30	25
64	63	-1	-1	4	-1	58	-1	-1	-1	49	-1	-1	-1	-1	-1	29	52	-1	-1	53	-1	39	-1	33	22	-1	36	-1	-1	-1	-1	-1	-1	-1	-1	24	-1	28	-1	55	-1	-1	-1	-1	-1	12	14	31	43	11	32	47	-1	60	15	9	35	-1	-1	51	61	1	-1
16	7	24	49	-1	-1	-1	-1	-1	33	-1	47	40	-1	-1	-1	-1	62	34	30	56	54	-1	-1	59	28	-1	-1	-1	2	-1	-1	12	-1	-1	25	44	45	-1	57	-1	-1	35	-1	4	10	1	19	-1	18	-1	52	-1	-1	-1	-1	46	-1	29	15	60	-1	26	-1
-1	-1	56	-1	54	32	3	48	-1	-1	-1	-1	51	-1	-1	-1	-1	-1	-1	-1	-1	50	-1	-1	-1	-1	27	33	-1	38	-1	35	26	-1	55	52	-1	-1	34	64	-1	-1	-1	53	7	31	43	40	-1	12	59	-1	58	-1	-1	-1	20	45	21	-1	6	9	11	18
4	-1	33	-1	5	-1	9	-1	-1	-1	1	-1	-1	-1	-1	38	-1	29	52	24	35	44	11	-1	-1	17	31	14	12	-1	16	47	62	-1	-1	-1	-1	-1	-1	22	-1	41	-1	21	-1	20	54	-1	-1	23	-1	43	-1	8	45	-1	-1	58	50	-1	-1	63	25	49
-1	64	-1	-1	-1	63	-1	-1	50	19	-1	-1	23	-1	-1	-1	-1	-1	-1	-1	-1	-1	42	-1	-1	-1	7	54	-1	26	41	-1	-1	-1	-1	4	9	16	-1	-1	-1	49	47	-1	-1	44	-1	29	-1	-1	28	1	32	-1	-1	60	2	62	36	-1	-1	-1	-1	43
-1	-1	-1	-1	-1	-1	22	-1	18	-1	26	28	4	15	63	-1	-1	-1	6	-1	12	-1	-1	-1	-1	24	-1	62	-1	-1	-1	-1	1	14	-1	17	31	11	-1	-1	-1	25	60	32	33	-1	-1	-1	-1	61	-1	-1	-1	40	49	-1	-1	-1	-1	57	-1	-1	56	7
35	46	-1	41	-1	38	10	-1	7	-1	-1	-1	-1	56	49	-1	31	-1	20	-1	-1	32	60	47	22	-1	-1	25	58	-1	-1	57	-1	27	-1	-1	30	50	-1	-1	-1	42	9	59	45	5	18	-1	-1	29	37	26	-1	-1	19	24	23	-1	-1	40	-1	64	17	-1
-1	26	50	-1	28	21	-1	60	58	13	43	25	-1	62	42	14	-1	-1	-1	-1	-1	36	59	46	63	-1	-1	53	49	-1	-1	-1	51	-1	-1	-1	-1	-1	-1	38	-1	-1	-1	24	-1	22	64	6	-1	-1	-1	-1	3	20	44	-1	-1	33	32	54	-1	52	-1	-1
-1	-1	12	8	-1	-1	-1	-1	35	45	48	-1	-1	31	36	-1	16	-1	18	33	23	-1	13	-1	-1	-1	-1	50	20	-1	-1	32	58	-1	-1	7	-1	60	21	3	-1	39	14	62	-1	61	-1	26	6	-1	54	25	56	38	9	57	53	-1	-1	42	-1	-1	24	34
36	21	6	3	-1	55	-1	-1	2	-1	-1	-1	-1	28	-1	43	17	-1	12	23	-1	52	20	-1	14	-1	34	-1	39	-1	-1	41	57	9	-1	53	-1	-1	49	51	-1	-1	33	42	29	-1	-1	15	-1	-1	63	-1	-1	64	-1	-1	11	-1	-1	-1	-1	-1	-1	5
48	34	-1	44	7	-1	27	57	-1	-1	-1	6	32	39	26	25	40	-1	14	-1	-1	-1	-1	-1	42	51	-1	37	4	-1	-1	10	-1	-1	46	56	-1	18	-1	63	12	-1	50	-1	-1	-1	-1	62	-1	15	49	36	-1	-1	21	17	35	-1	-1	-1	-1	41	38	-1
39	-1	-1	-1	-1	-1	29	64	51	-1	-1	-1	-1	-1	-1	-1	42	6	59	-1	-1	-1	-1	4	52	-1	-1	15	-1	32	23	62	-1	50	48	3	-1	-1	8	-1	-1	45	54	26	-1	-1	-1	-1	60	-1	-1	-1	37	28	-1	-1	31	-1	-1	-1	-1	27	-1	57
-1	-1	-1	-1	12	52	-1	-1	30	11	57	-1	-1	45	14	-1	-1	-1	-1	-1	44	26	-1	-1	-1	50	18	-1	21	47	-1	27	-1	-1	-1	-1	23	41	17	15	-1	60	38	-1	-1	-1	-1	-1	-1	-1	55	-1	-1	-1	13	-1	-1	-1	-1	59	1	42	49	40
40	35	-1	-1	-1	60	26	18	-1	55	-1	23	-1	-1	-1	-1	-1	9	-1	13	43	53	-1	27	-1	45	-1	2	7	-1	-1	5	19	-1	-1	-1	-1	-1	-1	-1	22	1	21	14	57	37	52	-1	50	-1	-1	-1	4	39	48	44	-1	-1	-1	63	64	15	28	36
42	-1	-1	-1	58	37	-1	-1	59	-1	-1	8	-1	12	60	-1	39	-1	-1	-1	21	-1	49	-1	-1	-1	3	-1	22	44	24	-1	-1	-1	-1	-1	-1	-1	-1	-1	-1	20	30	28	-1	-1	-1	-1	-1	38	53	-1	-1	-1	-1	29	32	6	56	48	-1	46	2	17
28	-1	53	-1	23	-1	56	14	41	21	-1	-1	54	-1	1	5	2	-1	-1	47	-1	34	61	-1	-1	-1	6	63	17	25	-1	13	-1	12	64	31	42	24	27	58	49	18	-1	-1	-1	-1	4	-1	35	11	16	59	57	-1	-1	62	-1	-1	19	-1	20	-1	-1	-1
-1	-1	-1	13	-1	-1	62	-1	-1	-1	-1	52	63	64	-1	9	10	-1	-1	37	28	45	36	-1	38	-1	-1	57	-1	-1	20	26	-1	59	-1	-1	21	30	55	35	-1	-1	-1	58	46	-1	44	39	42	8	-1	40	27	-1	-1	61	-1	22	-1	33	-1	-1	51	-1
56	4	-1	52	60	-1	-1	35	15	-1	53	2	-1	27	-1	11	36	-1	47	-1	-1	8	-1	-1	3	54	12	-1	-1	-1	42	1	-1	-1	32	-1	19	39	30	-1	5	-1	28	-1	13	48	37	-1	57	-1	25	34	-1	61	31	-1	-1	-1	-1	-1	7	55	-1	-1
15	-1	-1	62	-1	-1	13	-1	-1	-1	40	35	-1	-1	-1	24	32	42	-1	-1	-1	-1	25	-1	-1	29	-1	28	31	27	-1	19	17	38	-1	-1	37	51	-1	49	53	4	41	9	6	-1	26	12	-1	21	23	39	-1	46	-1	63	-1	-1	10	-1	-1	57	-1	22
6	-1	26	22	-1	-1	39	-1	28	-1	42	21	-1	59	12	-1	3	-1	29	-1	48	-1	16	-1	-1	-1	-1	51	38	53	17	63	-1	20	-1	61	-1	44	58	-1	-1	-1	64	-1	47	-1	-1	18	-1	14	41	-1	-1	-1	-1	11	-1	-1	4	24	-1	-1	8	-1
27	-1	17	12	-1	31	34	28	-1	-1	16	26	25	37	-1	-1	45	39	-1	63	6	-1	-1	41	4	9	-1	-1	-1	-1	59	24	-1	-1	-1	-1	-1	2	18	7	60	-1	22	35	-1	46	23	43	-1	-1	-1	54	-1	53	-1	56	1	48	-1	-1	-1	-1	15	11
20	29	18	-1	-1	49	2	-1	46	-1	-1	61	48	60	39	-1	-1	14	54	62	33	4	-1	13	-1	26	35	-1	43	45	37	-1	-1	-1	-1	57	16	3	11	-1	-1	-1	40	10	63	-1	58	36	-1	30	-1	42	9	-1	-1	8	41	34	31	-1	-1	32	12	28
-1	-1	-1	-1	41	51	64	36	-1	-1	38	10	8	9	58	-1	-1	-1	-1	17	11	-1	-1	-1	-1	5	30	-1	25	-1	15	56	31	53	-1	50	-1	47	-1	-1	33	2	-1	-1	44	-1	34	54	13	-1	4	60	43	22	29	26	-1	-1	18	37	-1	-1	-1	-1
58	37	3	19	47	54	-1	50	1	-1	-1	-1	43	-1	-1	-1	-1	-1	-1	-1	24	-1	38	-1	21	7	8	-1	13	22	-1	23	4	15	34	26	45	-1	-1	-1	-1	-1	-1	11	-1	-1	29	20	-1	64	-1	-1	28	10	51	-1	-1	53	46	-1	-1	-1	33	9
30	-1	9	-1	61	1	63	-1	44	62	-1	-1	47	-1	-1	19	-1	-1	10	-1	31	51	-1	52	-1	-1	-1	-1	-1	58	14	11	6	-1	-1	-1	-1	-1	-1	5	-1	59	49	38	-1	-1	-1	-1	17	-1	2	45	15	35	-1	7	-1	23	3	-1	-1	-1	-1	21
-1	-1	-1	15	-1	12	48	-1	22	-1	-1	-1	-1	-1	-1	16	-1	-1	62	-1	-1	33	21	26	35	-1	-1	32	-1	3	60	46	53	49	30	-1	58	23	19	43	-1	-1	24	39	52	4	-1	-1	45	-1	6	7	18	1	63	51	50	-1	28	-1	-1	2	-1	59
61	-1	-1	-1	-1	35	-1	24	-1	30	3	19	44	26	46	-1	22	58	-1	-1	-1	-1	-1	-1	17	-1	-1	-1	-1	42	-1	43	63	-1	-1	34	18	56	62	31	21	9	-1	-1	-1	-1	7	-1	-1	50	-1	-1	52	11	-1	-1	-1	14	20	32	-1	49	-1	-1
25	3	60	-1	-1	23	44	54	5	-1	14	-1	-1	18	38	39	1	-1	13	-1	-1	9	2	-1	-1	58	4	-1	-1	-1	21	-1	11	-1	20	42	35	-1	-1	-1	16	36	45	51	-1	-1	-1	-1	-1	57	-1	33	-1	62	22	-1	-1	-1	43	12	15	-1	-1	-1
22	59	47	-1	57	-1	-1	-1	-1	49	24	27	11	-1	-1	-1	4	-1	23	-1	3	12	-1	10	-1	34	38	-1	18	-1	63	-1	-1	-1	45	8	26	-1	40	-1	13	-1	-1	1	15	41	32	-1	-1	-1	30	31	64	-1	-1	28	-1	60	-1	-1	56	-1	-1	-1
-1	-1	-1	-1	-1	29	-1	20	-1	12	58	55	-1	-1	43	35	56	-1	5	-1	39	59	-1	-1	-1	-1	57	-1	33	52	-1	-1	-1	4	41	1	-1	-1	-1	14	34	-1	-1	-1	19	-1	62	22	61	-1	-1	9	-1	-1	-1	-1	7	10	-1	21	37	-1	-1	44
37	10	-1	56	18	-1	40	-1	9	-1	7	-1	36	57	-1	29	34	17	50	19	-1	14	-1	-1	-1	-1	20	59	45	-1	-1	-1	-1	-1	-1	2	28	27	-1	-1	8	-1	-1	-1	42	54	-1	23	44	-1	-1	-1	-1	32	39	21	30	13	33	-1	-1	1	22	-1
1	17	-1	-1	-1	50	7	9	-1	-1	-1	42	-1	21	-1	33	63	-1	-1	-1	20	-1	18	31	-1	-1	29	8	-1	-1	22	-1	-1	48	57	-1	59	38	60	-1	44	-1	12	-1	30	-1	14	-1	15	-1	-1	-1	10	-1	-1	-1	-1	27	-1	-1	-1	-1	39	-1
-1	-1	-1	58	-1	-1	-1	-1	34	-1	32	-1	-1	-1	-1	13	49	53	-1	11	37	-1	-1	30	15	39	40	27	-1	-1	51	7	-1	52	-1	9	29	64	-1	-1	3	50	26	-1	2	-1	-1	10	-1	54	-1	12	59	14	-1	41	-1	16	48	-1	36	18	6	24
-1	-1	13	-1	-1	-1	16	-1	19	-1	-1	3	-1	44	-1	-1	-1	49	39	-1	30	-1	6	-1	28	-1	-1	-1	-1	-1	35	4	24	7	-1	63	11	53	-1	-1	42	22	-1	-1	-1	60	47	9	12	31	62	15	25	23	-1	-1	38	43	41	55	-1	-1	50	-1
-1	62	35	-1	-1	6	20	-1	24	-1	59	-1	29	55	27	-1	12	2	-1	56	-1	-1	45	-1	25	15	1	9	47	-1	54	-1	18	-1	-1	30	-1	-1	33	-1	-1	-1	-1	-1	-1	51	-1	8	64	49	36	19	-1	-1	-1	32	-1	-1	58	-1	-1	22	63	-1
33	-1	-1	55	-1	-1	25	-1	-1	43	12	-1	45	-1	8	62	-1	4	21	-1	17	58	-1	-1	31	16	37	-1	23	-1	-1	39	-1	-1	19	6	50	61	1	9	56	32	-1	-1	-1	15	49	52	-1	13	-1	3	41	42	59	35	-1	51	57	60	-1	-1	36	54
-1	-1	-1	-1	42	57	18	12	40	-1	-1	-1	39	-1	-1	-1	-1	-1	19	15	10	-1	1	-1	-1	-1	-1	45	-1	50	46	-1	-1	2	51	-1	-1	-1	-1	-1	-1	-1	-1	6	43	-1	3	5	-1	-1	-1	38	-1	9	34	-1	-1	52	-1	56	-1	-1	23	64
-1	-1	-1	27	-1	36	-1	49	-1	35	-1	-1	-1	-1	15	-1	50	-1	11	-1	-1	-1	41	64	57	-1	-1	-1	30	43	38	-1	-1	62	31	-1	4	-1	48	47	54	-1	53	-1	-1	-1	-1	13	-1	39	60	-1	55	17	61	-1	-1	9	59	-1	10	-1	-1	-1
-1	-1	30	-1	14	-1	-1	-1	-1	-1	21	53	-1	-1	-1	-1	38	44	32	-1	57	-1	55	-1	-1	63	-1	-1	64	8	40	-1	29	3	5	-1	-1	-1	-1	28	-1	12	-1	36	20	62	27	-1	-1	-1	33	-1	-1	-1	-1	-1	-1	-1	1	25	-1	-1	18	2
-1	39	-1	9	-1	-1	43	61	57	-1	-1	-1	56	1	22	63	-1	59	53	29	42	-1	-1	3	11	-1	49	12	24	-1	52	34	8	35	-1	20	-1	14	46	41	-1	58	19	-1	-1	-1	-1	-1	-1	44	10	18	45	16	6	-1	15	-1	-1	31	-1	40	27	-1
3	60	63	50	45	8	32	-1	-1	-1	64	-1	-1	17	-1	7	-1	31	-1	-1	34	24	46	-1	19	53	13	-1	59	-1	29	22	-1	58	42	-1	15	43	-1	-1	-1	28	-1	40	-1	35	-1	1	30	2	26	-1	51	27	-1	-1	48	-1	-1	-1	-1	-1	44	61
64 
6 16 14 55
11 26 34 54
53 33 11 20
14 26 6 50
29 56 64 52
46 62 40 42
39 48 46 10
5 16 42 8
29 32 52 30
16 1 4 55
21 11 55 46
48 55 13 35
5 6 29 5
44 45 23 52
32 47 15 43
17 36 35 29
28 47 17 13
13 43 17 49
62 61 44 53
9 52 16 4
52 38 19 30
10 22 61 18
2 23 45 17
59 62 35 59
64 33 22 15
11 42 12 6
59 31 33 46
9 2 46 19
39 58 59 49
59 44 16 16
58 41 49 63
10 15 7 16
8 12 9 19
2 61 43 24
29 59 35 26
44 29 23 45
31 34 61 45
50 48 49 3
15 22 47 61
44 51 47 22
26 21 3 17
47 39 8 22
35 61 8 39
42 3 58 34
38 4 57 39
56 33 1 7
1 64 22 31
14 18 29 40
44 19 64 58
48 20 52 14
11 51 63 12
23 43 42 61
30 53 36 31
50 27 49 21
5 29 51 56
23 19 64 40
12 58 64 47
33 56 57 16
37 3 2 4
53 53 43 37
26 11 33 37
4 52 41 40
35 21 41 58
59 33 49 18
